NAME : local_4
TYPE : ATSP
DIMENSION : 5
EDGE_WEIGHT_TYPE : EXPLICIT
EDGE_WEIGHT_FORMAT : FULL_MATRIX
EDGE_WEIGHT_SECTION
0 1071 477 770 0 
0 0 775 10000000 1111 
0 775 0 10000000 477 
0 10000000 10000000 0 770 
0 10000000 10000000 10000000 0 
EOF